32582.93,40.09,44.15
33396.56,39.11,43.07
30244.52,43.19,47.56
31939.74,40.9,45.04
35507.64,36.79,40.51
33208.85,39.33,43.32
29936.39,43.63,48.05
33184.85,39.36,43.35
29478.59,44.31,48.8
30847.61,42.34,46.63
32401.54,40.31,44.39
30681.1,42.57,46.88
28140.56,46.42,51.12
30619.4,42.66,46.98
31081.73,42.02,46.28
32945.5,39.65,43.66
30426.29,42.93,47.28
28624.29,45.63,50.25
31430.86,41.56,45.77
31683.01,41.23,45.4
